26.69 0.25 3.4 28.1 0.2 2.27 26.89 0.11 2.3 10.81 0.24 2.51 16.41 0.19 4.83 21.94 0.19 4.5
24.78 0.26 2.24 27.22 0.2 2.14 28.41 0.16 3.41 16.04 0.21 4.01 18.6 0.27 3.22 11.62 0.19 2.76
23.98 0.23 2.07 20.72 0.23 4.44 19.97 0.2 3.74 23.34 0.15 3.85 20.07 0.26 4.56 15.37 0.16 5.0
29.69 0.26 3.03 19.52 0.12 2.87 10.36 0.18 3.02 12.82 0.17 2.1 15.8 0.16 4.19 24.21 0.14 2.96
